NAME : random_1
COMMENT : 50 random nodes
TYPE : TSP
DIMENSION : 50
EDGE_WEIGHT_TYPE : EUC_2D
NODE_COORD_SECTION
1 732 665
2 137 94
3 652 125
4 728 534
5 290 757
6 482 532
7 367 378
8 518 451
9 783 690
10 117 973
11 759 122
12 299 545
13 362 449
14 902 940
15 601 701
16 440 616
17 232 204
18 653 26
19 600 988
20 538 678
21 116 193
22 462 77
23 832 889
24 785 131
25 894 978
26 798 444
27 544 895
28 869 80
29 192 62
30 56 820
31 649 448
32 545 384
33 643 106
34 555 328
35 329 397
36 213 979
37 612 110
38 166 446
39 414 117
40 517 716
41 260 276
42 667 218
43 317 123
44 118 326
45 560 143
46 913 62
47 601 891
48 144 806
49 34 437
50 459 997
EOF